50
100
98
96
95
85
84
84
83
82
81
80
78
76
76
74
72
72
71
71
69
66
65
64
64
62
61
60
56
53
52
52
49
48
47
45
43
43
42
40
40
40
39
37
32
30
28
26
21
21
21
20
